TOUR_SECTION
1
128
62
82
149
4
145
162
3
112
76
26
41
120
197
2
152
107
77
67
125
23
167
170
57
40
90
116
183
12
118
173
75
21
193
143
180
158
131
161
191
123
18
94
113
142
181
115
109
63
85
69
37
101
16
45
100
50
55
151
49
59
11
93
88
156
79
111
172
71
102
188
185
86
56
122
166
92
15
7
36
46
164
38
163
30
189
80
184
121
78
127
72
53
179
42
29
34
140
177
175
104
168
132
159
198
74
32
98
135
117
8
182
14
24
6
186
20
33
99
17
35
10
47
114
155
103
39
160
5
106
68
96
201
126
83
27
43
51
110
195
19
13
176
154
119
137
136
196
22
60
52
54
81
108
165
139
200
144
199
187
84
133
28
174
65
134
178
138
105
194
95
190
129
91
124
148
147
192
58
44
25
31
48
61
70
141
146
150
157
66
87
64
89
73
97
9
169
153
171
130
-1
EOF